% File represents an instance of a Composite Structure problem to be solved by a CP framework
% Created on 2025-03-26 10:41:58.907
T = 58;
n = 36;
m = 60;
edges = [(1, 2),
(8, 7),
(14, 13),
(20, 19),
(26, 25),
(32, 31),
(2, 3),
(8, 9),
(14, 15),
(20, 21),
(26, 27),
(33, 32),
(4, 3),
(10, 9),
(16, 15),
(22, 21),
(28, 27),
(33, 34),
(5, 4),
(10, 11),
(17, 16),
(23, 22),
(29, 28),
(35, 34),
(6, 5),
(12, 11),
(17, 18),
(24, 23),
(29, 30),
(36, 35),
(1, 7),
(13, 7),
(13, 19),
(25, 19),
(25, 31),
(8, 2),
(14, 8),
(14, 20),
(26, 20),
(26, 32),
(9, 3),
(15, 9),
(15, 21),
(21, 27),
(33, 27),
(10, 4),
(16, 10),
(16, 22),
(28, 22),
(28, 34),
(5, 11),
(17, 11),
(17, 23),
(29, 23),
(29, 35),
(6, 12),
(18, 12),
(24, 18),
(24, 30),
(36, 30)];
counts = [|12, 6, 12, 24,
|12, 6, 12, 20,
|12, 2, 12, 20,
|12, 4, 12, 22,
|12, 4, 12, 28,
|12, 6, 12, 28,
|12, 6, 12, 20,
|12, 6, 12, 22,
|12, 2, 12, 22,
|12, 6, 12, 24,
|12, 4, 12, 24,
|12, 6, 12, 24,
|12, 8, 12, 20,
|12, 10, 12, 24,
|12, 8, 12, 22,
|12, 8, 12, 24,
|12, 8, 12, 26,
|12, 6, 12, 26,
|10, 8, 10, 18,
|10, 8, 10, 24,
|10, 8, 10, 22,
|10, 8, 10, 24,
|10, 8, 10, 26,
|12, 8, 12, 26,
|10, 10, 10, 18,
|10, 10, 10, 24,
|10, 6, 10, 22,
|10, 8, 10, 26,
|10, 10, 10, 28,
|10, 8, 10, 26,
|8, 8, 8, 18,
|8, 8, 8, 24,
|10, 8, 10, 26,
|10, 6, 10, 24,
|10, 8, 10, 26,
|10, 12, 10, 26|];
